data;
param n:=100;
param w:=1 -212 2 163 3 145 4 -86 5 -268 6 104 7 65 8 -30 9 44 10 219 11 298 12 -262 13 331 14 460 15 -480 16 394 17 -487 18 -329 19 72 20 -476 21 375 22 52 23 -362 24 54 25 272 26 195 27 -122 28 -150 29 440 30 -92 31 77 32 -76 33 -15 34 -106 35 -421 36 -55 37 82 38 476 39 -2 40 479 41 -283 42 275 43 -79 44 233 45 85 46 -172 47 481 48 -120 49 318 50 -275 51 -247 52 -148 53 -15 54 -319 55 103 56 -311 57 230 58 192 59 364 60 145 61 81 62 118 63 231 64 151 65 -319 66 -455 67 -304 68 -18 69 462 70 189 71 -194 72 157 73 60 74 -8 75 247 76 -488 77 125 78 -505 79 -497 80 259 81 -152 82 -281 83 204 84 -91 85 45 86 298 87 -361 88 161 89 -74 90 194 91 -380 92 -262 93 242 94 252 95 351 96 -369 97 -437 98 -209 99 174 100 180;
